0000000000000000
0000011100000000
0000100011000000
0001000001000000
0011000001000000
0010000001000000
0000010001000000
0000101001000000
0000100110000000
0000100110000000
0000011100000000
0000000000000000
0000000100000000
0000000100000000
0000000000000000
0000000000000000
